\ LP format - for model browsing. Use MPS format to capture full model detail.
Minimize
  37.4 y_1 + 41.2 y_2 + 32.2 y_3 + 36.2 y_4 + 30.2 y_5 + 38 y_6 + 32 y_7
   + 36.2 y_8 + 40.2 y_9 + 33.6 y_10 + 39.2 y_11 + 76.2 y_12 + 61.6 y_13
   + 78.8 y_14 + 72.2 y_15 + 80.6 y_16 + 66.6 y_17 + 70.8 y_18 + 78.2 y_19
   + 20 y_20 + 20.4 y_21 + 24.4 y_22 + 26 y_23 + 30 y_24 + 30.2 y_25
   + 31.6 y_26 + 34.2 y_27 + 35.4 y_28 + 40 y_29
Subject To
 R0: y_0 = 1
 R1: y_1 = 1
 R2: y_2 = 1
 R3: y_3 = 1
 R4: y_4 = 1
 R5: y_5 = 1
 R6: y_6 = 1
 R7: y_7 = 1
 R8: y_8 = 1
 R9: y_9 = 1
 R10: y_10 = 1
 R11: y_11 = 1
 R12: y_12 = 1
 R13: y_13 = 1
 R14: y_14 = 1
 R15: y_15 = 1
 R16: y_16 = 1
 R17: y_17 = 1
 R18: y_18 = 1
 R19: y_19 = 1
 R20: y_20 = 1
 R21: y_21 = 1
 R22: y_22 = 1
 R23: y_23 = 1
 R24: y_24 = 1
 R25: y_25 = 1
 R26: y_26 = 1
 R27: y_27 = 1
 R28: y_28 = 1
 R29: y_29 = 1
Bounds
 y_0 <= 1
 y_1 <= 1
 y_2 <= 1
 y_3 <= 1
 y_4 <= 1
 y_5 <= 1
 y_6 <= 1
 y_7 <= 1
 y_8 <= 1
 y_9 <= 1
 y_10 <= 1
 y_11 <= 1
 y_12 <= 1
 y_13 <= 1
 y_14 <= 1
 y_15 <= 1
 y_16 <= 1
 y_17 <= 1
 y_18 <= 1
 y_19 <= 1
 y_20 <= 1
 y_21 <= 1
 y_22 <= 1
 y_23 <= 1
 y_24 <= 1
 y_25 <= 1
 y_26 <= 1
 y_27 <= 1
 y_28 <= 1
 y_29 <= 1
End
